(set-logic QF_S)
(declare-fun var_0xINPUT_155150 () String)
(assert (and (= (len var_0xINPUT_155150) 0) (= (len var_0xINPUT_155150) 0) (not (= var_0xINPUT_155150 "Example:")) (not (= var_0xINPUT_155150 "CQALcCP5TB"))))
(check-sat var_0xINPUT_155150)